33D32945 STP File, STP Format Version 1.0

SECTION Comments
Name "cube_n13_d3_s33"
Problem "Euclidean Steiner Tree Problem"
Remark "Generated with STPGenerator. 3 dimensions."
END

SECTION Graph
Nodes 13
END

SECTION Coordinates
DDD 0 0.3079489355 0.6126976412 0.4672263043
DDD 1 0.5413947988 0.3004468834 0.2632564820
DDD 2 0.8872430967 0.7088636578 0.0528921765
DDD 3 0.2627286242 0.2802385941 0.3090906377
DDD 4 0.2058983465 0.1701670499 0.6832347255
DDD 5 0.1237438932 0.9474799428 0.1736593936
DDD 6 0.3251002693 0.2867596859 0.3318277520
DDD 7 0.4798882434 0.6288429693 0.6801386246
DDD 8 0.0063632978 0.7409414774 0.3425149626
DDD 9 0.8681538691 0.4625301303 0.7613690005
DDD 10 0.7293978635 0.7704790662 0.3740666413
DDD 11 0.1966241674 0.3118738645 0.6745135252
DDD 12 0.4598806493 0.1991169612 0.3833771825
END
